% File represents an instance of a Composite Structure problem to be solved by a CP framework
% Created on 2025-03-26 10:41:21.079
T = 58;
n = 16;
m = 24;
edges = [(2, 1),
(6, 5),
(10, 9),
(14, 13),
(3, 2),
(6, 7),
(10, 11),
(14, 15),
(4, 3),
(8, 7),
(11, 12),
(15, 16),
(5, 1),
(9, 5),
(13, 9),
(6, 2),
(10, 6),
(14, 10),
(3, 7),
(11, 7),
(15, 11),
(4, 8),
(8, 12),
(16, 12)];
counts = [|8, 10, 8, 18,
|8, 10, 8, 20,
|10, 10, 10, 20,
|10, 12, 10, 20,
|8, 14, 8, 18,
|8, 14, 8, 20,
|8, 10, 8, 18,
|8, 12, 8, 20,
|8, 16, 8, 18,
|8, 18, 8, 20,
|8, 14, 8, 18,
|8, 12, 8, 16,
|8, 18, 8, 18,
|8, 20, 8, 22,
|8, 18, 8, 20,
|8, 16, 8, 18|];
